7,9	0,0	20,0	12,7	0,0	0,0	0,0	0,0	0,0	17,6
5,1	9,5	0,0	7,1	18,2	0,0	0,0	17,1	0,0	0,0
0,0	0,0	8,0	0,0	12,1	19,5	0,0	0,0	9,6	0,0
14,5	0,0	19,5	0,0	0,0	0,0	14,4	0,0	0,0	0,0
0,0	16,0	0,0	19,6	10,9	0,0	0,0	19,3	0,0	0,0
0,0	10,4	11,9	0,0	6,0	11,8	0,0	0,0	17,6	0,0
0,0	10,6	0,0	6,9	0,0	0,0	17,7	0,0	0,0	18,3
7,5	0,0	19,5	0,0	0,0	0,0	0,0	0,0	0,0	15,5
0,0	18,9	0,0	11,6	19,8	0,0	0,0	10,9	0,0	0,0
0,0	0,0	11,0	0,0	0,0	19,7	19,0	0,0	0,0	14,9
									
4,7	2,6	3,3	4,1	3,8	3,8	2,9	3,9	3,6	5,0
